c generated by sgen
p cnf 113 236
-2 -3 -4 0
-1 -3 -4 0
-1 -2 -4 0
-1 -2 -3 0
-6 -7 -8 0
-5 -7 -8 0
-5 -6 -8 0
-5 -6 -7 0
-10 -11 -12 0
-9 -11 -12 0
-9 -10 -12 0
-9 -10 -11 0
-14 -15 -16 0
-13 -15 -16 0
-13 -14 -16 0
-13 -14 -15 0
-18 -19 -20 0
-17 -19 -20 0
-17 -18 -20 0
-17 -18 -19 0
-22 -23 -24 0
-21 -23 -24 0
-21 -22 -24 0
-21 -22 -23 0
-26 -27 -28 0
-25 -27 -28 0
-25 -26 -28 0
-25 -26 -27 0
-30 -31 -32 0
-29 -31 -32 0
-29 -30 -32 0
-29 -30 -31 0
-34 -35 -36 0
-33 -35 -36 0
-33 -34 -36 0
-33 -34 -35 0
-38 -39 -40 0
-37 -39 -40 0
-37 -38 -40 0
-37 -38 -39 0
-42 -43 -44 0
-41 -43 -44 0
-41 -42 -44 0
-41 -42 -43 0
-46 -47 -48 0
-45 -47 -48 0
-45 -46 -48 0
-45 -46 -47 0
-50 -51 -52 0
-49 -51 -52 0
-49 -50 -52 0
-49 -50 -51 0
-54 -55 -56 0
-53 -55 -56 0
-53 -54 -56 0
-53 -54 -55 0
-58 -59 -60 0
-57 -59 -60 0
-57 -58 -60 0
-57 -58 -59 0
-62 -63 -64 0
-61 -63 -64 0
-61 -62 -64 0
-61 -62 -63 0
-66 -67 -68 0
-65 -67 -68 0
-65 -66 -68 0
-65 -66 -67 0
-70 -71 -72 0
-69 -71 -72 0
-69 -70 -72 0
-69 -70 -71 0
-74 -75 -76 0
-73 -75 -76 0
-73 -74 -76 0
-73 -74 -75 0
-78 -79 -80 0
-77 -79 -80 0
-77 -78 -80 0
-77 -78 -79 0
-82 -83 -84 0
-81 -83 -84 0
-81 -82 -84 0
-81 -82 -83 0
-86 -87 -88 0
-85 -87 -88 0
-85 -86 -88 0
-85 -86 -87 0
-90 -91 -92 0
-89 -91 -92 0
-89 -90 -92 0
-89 -90 -91 0
-94 -95 -96 0
-93 -95 -96 0
-93 -94 -96 0
-93 -94 -95 0
-98 -99 -100 0
-97 -99 -100 0
-97 -98 -100 0
-97 -98 -99 0
-102 -103 -104 0
-101 -103 -104 0
-101 -102 -104 0
-101 -102 -103 0
-106 -107 -108 0
-105 -107 -108 0
-105 -106 -108 0
-105 -106 -107 0
-109 -110 -111 0
-109 -110 -112 0
-109 -110 -113 0
-109 -111 -112 0
-109 -111 -113 0
-109 -112 -113 0
-110 -111 -112 0
-110 -111 -113 0
-110 -112 -113 0
-111 -112 -113 0
64 72 86 0
113 72 86 0
113 64 86 0
113 64 72 0
99 94 71 0
101 94 71 0
101 99 71 0
101 99 94 0
58 111 36 0
43 111 36 0
43 58 36 0
43 58 111 0
102 105 42 0
68 105 42 0
68 102 42 0
68 102 105 0
32 62 15 0
48 62 15 0
48 32 15 0
48 32 62 0
14 104 2 0
74 104 2 0
74 14 2 0
74 14 104 0
47 95 60 0
6 95 60 0
6 47 60 0
6 47 95 0
38 26 13 0
56 26 13 0
56 38 13 0
56 38 26 0
40 100 50 0
67 100 50 0
67 40 50 0
67 40 100 0
49 109 3 0
45 109 3 0
45 49 3 0
45 49 109 0
89 22 25 0
88 22 25 0
88 89 25 0
88 89 22 0
87 103 17 0
34 103 17 0
34 87 17 0
34 87 103 0
98 76 7 0
33 76 7 0
33 98 7 0
33 98 76 0
39 106 59 0
90 106 59 0
90 39 59 0
90 39 106 0
10 46 53 0
65 46 53 0
65 10 53 0
65 10 46 0
97 78 27 0
41 78 27 0
41 97 27 0
41 97 78 0
112 29 55 0
107 29 55 0
107 112 55 0
107 112 29 0
61 4 81 0
108 4 81 0
108 61 81 0
108 61 4 0
31 23 44 0
69 23 44 0
69 31 44 0
69 31 23 0
82 75 11 0
110 75 11 0
110 82 11 0
110 82 75 0
91 35 51 0
70 35 51 0
70 91 51 0
70 91 35 0
92 12 96 0
1 12 96 0
1 92 96 0
1 92 12 0
80 37 9 0
5 37 9 0
5 80 9 0
5 80 37 0
84 77 57 0
19 77 57 0
19 84 57 0
19 84 77 0
20 8 28 0
30 8 28 0
30 20 28 0
30 20 8 0
16 66 85 0
83 66 85 0
83 16 85 0
83 16 66 0
93 63 79 0
21 63 79 0
21 93 79 0
21 93 63 0
54 52 18 0
54 52 73 0
54 52 24 0
54 18 73 0
54 18 24 0
54 73 24 0
52 18 73 0
52 18 24 0
52 73 24 0
18 73 24 0
